SystemVerilog/FlipFlops/dflipflop/model/design_smt2.smt2
; SMT-LIBv2 description generated by Yosys 0.9+3981 (git sha1 0e0f8429, gcc 9.3.0-17ubuntu1~20.04 -fPIC -Os)
; yosys-smt2-module dflipflop
(declare-sort |dflipflop_s| 0)
(declare-fun |dflipflop_is| (|dflipflop_s|) Bool)
(declare-fun |dflipflop#0| (|dflipflop_s|) Bool) ; \reset
; yosys-smt2-input reset 1
; yosys-smt2-wire reset 1
(define-fun |dflipflop_n reset| ((state |dflipflop_s|)) Bool (|dflipflop#0| state))
(declare-fun |dflipflop#1| (|dflipflop_s|) (_ BitVec 1)) ; $auto$async2sync.cc:140:execute$6
(define-fun |dflipflop#2| ((state |dflipflop_s|)) (_ BitVec 1) (ite (|dflipflop#0| state) #b0 (|dflipflop#1| state))) ; \q0
(define-fun |dflipflop#3| ((state |dflipflop_s|)) (_ BitVec 1) (bvnot (|dflipflop#2| state))) ; \q1
; yosys-smt2-output q1 1
; yosys-smt2-wire q1 1
(define-fun |dflipflop_n q1| ((state |dflipflop_s|)) Bool (= ((_ extract 0 0) (|dflipflop#3| state)) #b1))
; yosys-smt2-output q0 1
; yosys-smt2-wire q0 1
(define-fun |dflipflop_n q0| ((state |dflipflop_s|)) Bool (= ((_ extract 0 0) (|dflipflop#2| state)) #b1))
(declare-fun |dflipflop#4| (|dflipflop_s|) Bool) ; \d
; yosys-smt2-input d 1
; yosys-smt2-wire d 1
(define-fun |dflipflop_n d| ((state |dflipflop_s|)) Bool (|dflipflop#4| state))
(declare-fun |dflipflop#5| (|dflipflop_s|) Bool) ; \clk
; yosys-smt2-input clk 1
; yosys-smt2-wire clk 1
; yosys-smt2-clock clk posedge
(define-fun |dflipflop_n clk| ((state |dflipflop_s|)) Bool (|dflipflop#5| state))
; yosys-smt2-register $auto$async2sync.cc:140:execute$6 1
(define-fun |dflipflop_n $auto$async2sync.cc:140:execute$6| ((state |dflipflop_s|)) Bool (= ((_ extract 0 0) (|dflipflop#1| state)) #b1))
(define-fun |dflipflop#6| ((state |dflipflop_s|)) (_ BitVec 1) (ite (|dflipflop#0| state) #b0 (ite (|dflipflop#4| state) #b1 #b0))) ; $auto$rtlil.cc:2218:Mux$9
(define-fun |dflipflop_a| ((state |dflipflop_s|)) Bool true)
(define-fun |dflipflop_u| ((state |dflipflop_s|)) Bool true)
(define-fun |dflipflop_i| ((state |dflipflop_s|)) Bool true)
(define-fun |dflipflop_h| ((state |dflipflop_s|)) Bool true)
(define-fun |dflipflop_t| ((state |dflipflop_s|) (next_state |dflipflop_s|)) Bool 
  (= (|dflipflop#6| state) (|dflipflop#1| next_state)) ; $procdff$5 $auto$async2sync.cc:140:execute$6
) ; end of module dflipflop
; yosys-smt2-module dflipflopspec
(declare-sort |dflipflopspec_s| 0)
(declare-fun |dflipflopspec_is| (|dflipflopspec_s|) Bool)
(declare-fun |dflipflopspec#0| (|dflipflopspec_s|) Bool) ; \reset
; yosys-smt2-input reset 1
; yosys-smt2-wire reset 1
(define-fun |dflipflopspec_n reset| ((state |dflipflopspec_s|)) Bool (|dflipflopspec#0| state))
; yosys-smt2-cell dflipflop DFLIPFLOP
(declare-fun |dflipflopspec#1| (|dflipflopspec_s|) Bool) ; \q1
(declare-fun |dflipflopspec#2| (|dflipflopspec_s|) Bool) ; \q0
(declare-fun |dflipflopspec_h DFLIPFLOP| (|dflipflopspec_s|) |dflipflop_s|)
; yosys-smt2-output q1 1
; yosys-smt2-wire q1 1
(define-fun |dflipflopspec_n q1| ((state |dflipflopspec_s|)) Bool (|dflipflopspec#1| state))
; yosys-smt2-output q0 1
; yosys-smt2-wire q0 1
(define-fun |dflipflopspec_n q0| ((state |dflipflopspec_s|)) Bool (|dflipflopspec#2| state))
(declare-fun |dflipflopspec#3| (|dflipflopspec_s|) Bool) ; \d
; yosys-smt2-input d 1
; yosys-smt2-wire d 1
(define-fun |dflipflopspec_n d| ((state |dflipflopspec_s|)) Bool (|dflipflopspec#3| state))
(declare-fun |dflipflopspec#4| (|dflipflopspec_s|) Bool) ; \clk
; yosys-smt2-input clk 1
; yosys-smt2-wire clk 1
; yosys-smt2-clock clk posedge
(define-fun |dflipflopspec_n clk| ((state |dflipflopspec_s|)) Bool (|dflipflopspec#4| state))
(define-fun |dflipflopspec#5| ((state |dflipflopspec_s|)) Bool (distinct (ite (|dflipflopspec#2| state) #b1 #b0) (ite (|dflipflopspec#1| state) #b1 #b0))) ; $ne$dflipflop.sv:19$1_Y
; yosys-smt2-assert 0 dflipflop.sv:16.3-19.31
(define-fun |dflipflopspec_a 0| ((state |dflipflopspec_s|)) Bool (or (|dflipflopspec#5| state) (not true))) ; $assert$dflipflop.sv:16$2
(define-fun |dflipflopspec_a| ((state |dflipflopspec_s|)) Bool (and
  (|dflipflopspec_a 0| state)
  (|dflipflop_a| (|dflipflopspec_h DFLIPFLOP| state))
))
(define-fun |dflipflopspec_u| ((state |dflipflopspec_s|)) Bool 
  (|dflipflop_u| (|dflipflopspec_h DFLIPFLOP| state))
)
(define-fun |dflipflopspec_i| ((state |dflipflopspec_s|)) Bool 
  (|dflipflop_i| (|dflipflopspec_h DFLIPFLOP| state))
)
(define-fun |dflipflopspec_h| ((state |dflipflopspec_s|)) Bool (and
  (= (|dflipflopspec_is| state) (|dflipflop_is| (|dflipflopspec_h DFLIPFLOP| state)))
  (= (|dflipflopspec#0| state) (|dflipflop_n reset| (|dflipflopspec_h DFLIPFLOP| state))) ; dflipflop.reset
  (= (|dflipflopspec#1| state) (|dflipflop_n q1| (|dflipflopspec_h DFLIPFLOP| state))) ; dflipflop.q1
  (= (|dflipflopspec#2| state) (|dflipflop_n q0| (|dflipflopspec_h DFLIPFLOP| state))) ; dflipflop.q0
  (= (|dflipflopspec#3| state) (|dflipflop_n d| (|dflipflopspec_h DFLIPFLOP| state))) ; dflipflop.d
  (= (|dflipflopspec#4| state) (|dflipflop_n clk| (|dflipflopspec_h DFLIPFLOP| state))) ; dflipflop.clk
  (|dflipflop_h| (|dflipflopspec_h DFLIPFLOP| state))
))
(define-fun |dflipflopspec_t| ((state |dflipflopspec_s|) (next_state |dflipflopspec_s|)) Bool 
  (|dflipflop_t| (|dflipflopspec_h DFLIPFLOP| state) (|dflipflopspec_h DFLIPFLOP| next_state))
) ; end of module dflipflopspec
; yosys-smt2-topmod dflipflopspec
; end of yosys output
